200
120
100
100
100
99
99
99
99
99
99
99
98
98
98
98
97
97
97
97
97
96
96
96
95
95
95
95
95
95
94
93
92
92
92
92
92
91
91
90
90
90
89
88
88
86
86
86
85
85
85
84
83
82
82
82
82
81
81
81
80
80
80
80
80
79
79
79
79
78
78
78
78
77
76
76
75
74
73
73
73
72
72
72
71
71
70
70
69
69
69
68
68
68
68
68
67
67
67
66
66
65
64
64
64
64
64
63
63
63
63
62
62
62
62
62
62
61
61
61
61
60
59
59
58
58
57
57
55
54
54
53
53
53
53
53
53
53
53
53
53
52
52
51
51
50
50
50
49
48
46
46
45
45
45
45
44
43
42
41
41
41
40
40
40
40
39
39
38
38
38
38
38
37
37
37
36
36
35
35
35
35
35
34
34
34
34
33
33
33
32
32
32
32
32
32
32
31
30
30
30
30
